ITEM: TIMESTEP
169
ITEM: NUMBER OF ATOMS
192
ITEM: BOX BOUNDS pp pp pp
0.0000000000000000e+00 1.3003500000000001e+01
0.0000000000000000e+00 1.3003500000000001e+01
0.0000000000000000e+00 1.3003500000000001e+01
ITEM: ATOMS id element type x y z c_pea c_v[1] c_v[2]
1 Li 1 1.68068 12.9971 9.80007 -1.84097 8.21707 9
2 Li 1 10.7465 0.792709 2.06657 -1.48255 10.314 17
3 Li 1 7.61265 7.49116 3.90978 -1.62066 10.7301 19
4 Li 1 2.26585 7.29643 4.48396 -1.49666 10.4124 19
5 Li 1 8.43177 8.76749 12.1976 -1.55236 10.5908 18
6 Li 1 4.61645 10.6581 12.2089 -1.55334 10.5396 17
7 Li 1 3.1031 8.04957 6.75596 -1.82113 8.90145 11
8 Li 1 4.63304 2.28913 7.34498 -1.52827 10.654 17
9 Li 1 12.9766 3.22073 4.92983 -1.81019 8.20959 9
10 Li 1 11.9612 10.2372 7.67444 -1.57292 10.8921 17
11 Li 1 12.9898 9.70865 1.59208 -1.85965 8.16239 9
12 Li 1 1.14669 4.08328 12.0429 -1.51663 10.406 18
13 Li 1 6.45813 9.7677 4.73036 -1.787 8.25077 10
14 Li 1 7.46926 2.57175 1.2085 -1.57709 10.7933 18
15 Li 1 8.87214 7.38335 1.32347 -1.52701 10.5398 18
16 Li 1 4.40198 5.75049 10.7741 -1.64692 10.9643 18
17 Li 1 10.4661 5.44627 7.73601 -1.48675 10.3443 17
18 Li 1 4.08759 0.903815 5.26991 -1.51537 10.5578 18
19 Li 1 2.48187 11.9561 11.8451 -1.52023 10.3335 17
20 Li 1 9.67465 1.59221 12.9927 -1.92135 8.93591 10
21 Li 1 0.902536 8.84958 7.69399 -1.57655 10.9074 17
22 Li 1 10.8767 4.18592 5.6926 -1.4436 10.2817 18
23 Li 1 8.27237 10.7157 5.45965 -1.25404 10.1509 17
24 Li 1 5.48959 3.8913 1.21649 -1.59038 10.7412 18
25 Li 1 11.7988 2.38157 12.0377 -1.56876 10.4053 17
26 Li 1 2.09793 10.6458 0.808973 -1.4757 10.3761 18
27 Li 1 7.24339 1.99093 8.69642 -1.59534 10.8663 18
28 Li 1 5.25414 12.0906 3.769 -1.58091 10.8532 17
29 Li 1 5.9537 8.7054 10.9371 -1.61735 11.1841 18
30 Li 1 7.59888 5.31915 2.59142 -1.59625 10.9194 17
31 Li 1 0.904964 5.28651 4.14204 -1.48528 10.2547 17
32 Li 1 11.3411 6.68601 9.64433 -1.93389 10.1613 14
33 Li 1 12.0161 11.7116 2.38201 -1.44932 10.2959 18
34 Li 1 0.850162 2.03402 10.7279 -1.46029 10.4082 17
35 Li 1 4.07404 12.0683 1.27163 -1.54078 10.4421 18
36 Li 1 8.56655 0.680979 10.8086 -1.60585 10.8062 17
37 Li 1 2.48961 0.95412 7.68775 -1.52421 10.392 18
38 Li 1 10.687 12.1335 4.45667 -1.50528 10.2898 19
39 Li 1 10.4752 7.38997 11.8386 -1.52821 10.3599 17
40 Li 1 2.21035 5.59086 2.04594 -1.46685 10.3036 18
41 Li 1 8.83917 5.50222 5.2486 -1.52105 10.539 18
42 Li 1 4.46313 7.06355 8.86636 -1.67841 11.0775 17
43 Li 1 5.95189 4.17408 8.5843 -1.59566 11.1488 18
44 Li 1 8.50642 12.3551 8.86342 -1.63683 10.9046 18
45 Li 1 5.38587 1.24807 2.45338 -1.57793 10.7561 18
46 Li 1 0.935386 7.6799 2.41112 -1.46111 10.3305 18
47 Li 1 12.0487 4.57202 10.6924 -1.50459 10.5998 19
48 Li 1 12.0645 1.14083 4.16647 -1.46043 10.3515 19
49 Li 1 0.964065 10.9922 8.87224 -1.41711 10.3784 19
50 Li 1 9.85815 11.3962 6.73604 -1.80679 8.79054 11
51 Li 1 2.02316 2.20179 5.67333 -1.45394 10.2608 18
52 Li 1 4.77171 8.68476 5.49168 -1.24864 10.1688 17
53 Li 1 8.35623 4.09251 7.31854 -1.54238 10.5195 17
54 Li 1 3.30177 4.83028 12.9843 -1.90766 8.96984 10
55 Li 1 10.8854 8.76107 0.813917 -1.46244 10.371 18
56 Li 1 7.1716 10.8423 10.8817 -1.65476 10.9544 18
57 La 2 1.70353 12.9404 3.2669 -8.22584 13.7166 14
58 La 2 11.4369 12.9509 9.78544 -8.18313 14.1862 13
59 La 2 4.86434 12.9733 9.76558 -8.24922 14.1419 13
60 La 2 8.05449 12.9994 3.23665 -8.13989 13.6479 15
61 La 2 11.2399 6.4525 3.27916 -8.20939 13.69 14
62 La 2 1.49944 6.48992 9.78303 -8.12139 14.3742 15
63 La 2 8.0888 6.46476 9.75566 -8.25758 14.0383 13
64 La 2 4.87826 6.4109 3.24308 -8.13526 13.6402 16
65 La 2 3.22317 1.70662 0.00683132 -8.20638 13.9738 16
66 La 2 9.70212 11.4516 12.9894 -8.18097 14.003 16
67 La 2 9.71247 4.72376 0.0296247 -8.17432 13.9839 15
68 La 2 3.25592 7.96363 12.9964 -8.20149 13.9926 15
69 La 2 3.24832 11.2246 6.53158 -8.20296 13.9812 15
70 La 2 9.71788 1.48779 6.52343 -8.20301 13.8543 16
71 La 2 9.70294 8.1616 6.53159 -8.1873 13.8536 15
72 La 2 3.21977 4.91356 6.52837 -8.21098 13.9773 15
73 La 2 12.9716 3.19162 1.75048 -8.15454 14.0908 16
74 La 2 12.9307 9.66481 11.4076 -8.17579 14.2358 12
75 La 2 12.9794 9.70028 4.80456 -8.07507 14.4244 16
76 La 2 12.9784 3.21984 8.06383 -8.19103 14.0266 15
77 La 2 6.47106 3.22364 11.3882 -8.12199 13.7864 14
78 La 2 6.47807 9.70007 1.59929 -8.22741 14.0011 15
79 La 2 6.49207 9.7144 8.0869 -8.19328 13.9184 14
80 La 2 6.4667 3.19409 4.90376 -8.29119 13.689 14
81 Zr 3 0.030217 12.9535 0.0189851 -10.9894 9.71387 12
82 Zr 3 6.46359 12.9292 6.50657 -11.0799 9.7592 11
83 Zr 3 12.8849 6.49727 6.53467 -11.0781 9.71428 11
84 Zr 3 6.51102 6.41405 0.0257931 -11.0889 9.71212 12
85 Zr 3 9.72716 3.16919 3.29912 -10.9613 9.69519 12
86 Zr 3 3.28861 9.67106 9.83895 -11.1665 9.72246 11
87 Zr 3 9.72985 9.73168 9.78293 -11.2826 9.87456 11
88 Zr 3 3.21205 3.22125 3.29777 -10.9691 9.70118 12
89 Zr 3 3.23321 3.27192 9.72786 -11.0972 9.70912 12
90 Zr 3 9.71201 9.73904 3.21937 -10.9141 9.61553 12
91 Zr 3 3.25519 9.68195 3.23537 -10.9402 9.62961 12
92 Zr 3 9.72912 3.19241 9.73808 -11.0526 9.69956 12
93 Zr 3 6.47349 6.47872 6.50607 -11.0715 9.76651 12
94 Zr 3 12.9312 6.44097 0.0462923 -10.9525 9.63654 12
95 Zr 3 6.45355 0.0194075 0.0121038 -11.0722 9.69879 12
96 Zr 3 0.0225475 12.906 6.55246 -11.0627 9.72652 12
97 O 4 12.6368 0.598293 2.02692 -9.6431 11.2688 14
98 O 4 0.525051 12.2006 11.1037 -9.51678 12.095 16
99 O 4 6.7251 12.1921 8.46046 -9.33564 12.7014 17
100 O 4 5.95009 0.664944 4.56546 -9.47848 11.1234 13
101 O 4 0.344753 7.17881 4.52923 -9.62041 11.3219 14
102 O 4 12.4176 5.66575 8.43259 -9.37161 12.0913 16
103 O 4 6.22203 5.65966 11.0852 -9.35717 13.1054 18
104 O 4 7.01359 7.1104 1.99154 -9.4943 10.8793 13
105 O 4 1.99849 12.5519 0.694337 -9.5998 11.107 13
106 O 4 11.1015 0.45037 12.2673 -9.45124 12.371 16
107 O 4 8.49409 6.84858 12.3693 -9.56885 11.1068 13
108 O 4 4.58501 5.94217 0.800844 -9.40274 12.2569 15
109 O 4 4.47897 0.367618 7.18371 -9.49895 11.0212 13
110 O 4 8.45568 12.5257 5.80117 -9.54687 11.8391 17
111 O 4 10.9277 6.07094 5.84813 -9.58978 11.0621 14
112 O 4 1.73843 6.99923 7.38855 -9.47804 12.14 17
113 O 4 0.671893 1.96817 12.6432 -9.64319 11.3174 14
114 O 4 12.2205 11.0432 0.470815 -9.53897 12.0777 16
115 O 4 12.1915 8.50053 6.8065 -9.38973 12.4752 15
116 O 4 0.703882 4.58528 6.04991 -9.54812 12.077 16
117 O 4 7.22906 4.44862 0.528408 -9.45763 11.2207 13
118 O 4 5.71727 8.34872 12.731 -9.41241 12.5246 17
119 O 4 5.75899 10.9632 6.04501 -9.39324 12.3972 17
120 O 4 7.23687 1.86772 6.84868 -9.41498 12.3129 16
121 O 4 10.5263 2.67343 1.36964 -9.43389 12.0025 15
122 O 4 2.64594 10.0601 11.8416 -9.54517 11.2115 13
123 O 4 8.95828 10.1906 7.84809 -9.40318 12.4555 17
124 O 4 3.86025 2.79161 5.26147 -9.51886 10.9954 13
125 O 4 3.99784 3.69673 11.6535 -9.4279 12.4701 16
126 O 4 9.02015 9.30293 1.26854 -9.62963 11.0613 13
127 O 4 2.61022 9.15071 5.20383 -9.54502 11.673 16
128 O 4 10.3919 3.54495 7.73386 -9.61718 11.3104 14
129 O 4 9.41614 5.08283 2.47412 -9.38694 12.4409 18
130 O 4 3.66245 7.68124 10.5143 -9.4045 11.885 14
131 O 4 3.52721 11.5983 4.0694 -9.38245 12.5082 18
132 O 4 9.24081 1.21873 9.07402 -9.48285 11.2543 12
133 O 4 10.0015 7.79589 8.98961 -9.26168 13.2903 16
134 O 4 2.78634 5.22874 3.95918 -9.61811 11.0404 14
135 O 4 2.77234 1.34691 10.523 -9.52845 12.1076 16
136 O 4 10.1255 11.7429 2.53375 -9.63543 11.1059 14
137 O 4 11.6616 3.94681 3.79386 -9.48725 11.8331 16
138 O 4 1.28975 9.08706 9.49434 -9.4288 12.3863 18
139 O 4 5.17474 2.52982 9.23999 -9.5032 11.1414 15
140 O 4 7.75612 10.4993 3.60754 -9.6426 11.9577 18
141 O 4 1.3031 10.3926 2.7707 -9.50985 12.0265 17
142 O 4 11.7301 2.53365 10.1222 -9.59789 11.6082 14
143 O 4 7.7782 9.05049 10.3279 -9.47302 10.7765 13
144 O 4 5.15779 3.95534 3.0104 -9.39446 12.5071 18
145 O 4 6.23813 7.26357 8.44098 -9.32102 13.0207 17
146 O 4 6.98246 5.7654 4.54347 -9.52009 10.9063 12
147 O 4 0.320061 5.77612 2.04136 -9.66733 11.2179 14
148 O 4 12.4581 7.16598 11.1222 -9.43647 12.4103 16
149 O 4 6.73872 0.782315 11.0686 -9.42256 12.7625 18
150 O 4 5.93785 12.3716 1.97868 -9.50471 10.8248 12
151 O 4 12.6057 12.2185 4.55922 -9.6278 11.5478 14
152 O 4 0.520528 0.690336 8.46297 -9.46607 12.0887 16
153 O 4 8.44146 6.01113 7.15915 -9.49016 11.0277 13
154 O 4 4.46079 6.89252 5.82232 -9.56054 11.7279 16
155 O 4 1.99014 0.303583 5.86828 -9.57639 11.1293 13
156 O 4 11.118 12.5585 7.36103 -9.431 12.6828 19
157 O 4 10.962 6.85856 0.718431 -9.6147 11.1261 14
158 O 4 1.86192 5.95735 12.2955 -9.46566 12.2153 16
159 O 4 4.47115 12.5893 12.3495 -9.5683 11.1044 13
160 O 4 8.38827 0.461462 0.76783 -9.39635 12.3291 15
161 O 4 7.1508 8.44139 5.97117 -9.43947 12.0777 16
162 O 4 5.67474 4.54236 6.81605 -9.40164 12.3821 17
163 O 4 5.73641 1.9949 0.52132 -9.50155 11.0349 12
164 O 4 7.20807 11.0756 12.7273 -9.40682 12.5188 18
165 O 4 0.684995 10.8906 6.96265 -9.61741 11.4676 15
166 O 4 12.2939 1.84547 6.05806 -9.48765 11.9681 15
167 O 4 12.2644 4.44229 12.6346 -9.6629 11.2317 14
168 O 4 0.723113 8.3566 0.484423 -9.54121 12.101 17
169 O 4 4.02162 9.25291 7.88007 -9.43874 12.6396 19
170 O 4 9.04853 3.60693 5.25622 -9.56013 10.9291 13
171 O 4 2.42862 3.72534 1.35653 -9.44399 12.0182 15
172 O 4 10.3914 9.31395 11.7848 -9.52699 11.2385 13
173 O 4 10.3151 10.2947 5.18422 -9.53986 11.4347 16
174 O 4 2.54645 2.86045 7.74775 -9.56826 11.4803 15
175 O 4 8.98746 2.76248 11.6722 -9.45666 12.5809 16
176 O 4 3.96735 10.1421 1.30887 -9.58281 11.1633 13
177 O 4 2.82151 11.6298 9.07645 -9.572 11.9952 15
178 O 4 10.1758 1.1725 3.97832 -9.65016 11.007 13
179 O 4 10.1707 5.15058 10.4575 -9.47496 12.208 17
180 O 4 2.82933 7.68432 2.55291 -9.62714 11.2248 14
181 O 4 3.53665 1.31165 2.46306 -9.39929 12.5063 18
182 O 4 9.24665 11.7185 10.5242 -9.42482 11.5148 13
183 O 4 9.41703 7.81771 4.02348 -9.41609 12.5511 17
184 O 4 3.62762 5.24578 9.04743 -9.38283 11.9282 13
185 O 4 5.21957 10.4092 10.3195 -9.49885 11.0349 12
186 O 4 7.78427 2.41609 3.00281 -9.40487 12.5461 18
187 O 4 11.6658 9.04416 2.7783 -9.52399 12.0195 17
188 O 4 1.22461 3.91823 10.1284 -9.58952 11.4293 15
189 O 4 7.77516 3.86694 9.23023 -9.56077 10.9052 12
190 O 4 5.20045 8.91769 3.62881 -9.62678 11.874 17
191 O 4 1.27019 2.44876 3.7829 -9.51155 11.8043 16
192 O 4 11.6904 10.5168 9.4915 -9.31262 13.0238 21
