Li La Zr O
 1.0000000000000000
    13.0035000000000007    0.0000000000000000    0.0000000000000000
     0.0000000000000000   13.0035000000000007    0.0000000000000000
     0.0000000000000000    0.0000000000000000   13.0035000000000007
 Li  La  Zr  O
  56  24  16  96
Cartesian
  1.6806828049898512 -0.0064300520157814  9.8000705615740209
 10.7465132138783730  0.7927089285475162  2.0665650395462816
  7.6126534258350551  7.4911624946607756  3.9097757433584661
  2.2658514187538401  7.2964325915457611  4.4839586041416686
  8.4317725206552332  8.7674868751645061 -0.8059409395031795
  4.6164462048897335 10.6581492960181041 -0.7945861815207043
  3.1031003630247063  8.0495716479817219  6.7559599393403742
  4.6330360256899050  2.2891289270177193  7.3449829136889173
 -0.0268730169109187  3.2207319646619590  4.9298266129687498
 -1.0422948768055507 10.2371976663503474  7.6744445340434515
 -0.0136816362739823  9.7086523700948089  1.5920825911514069
  1.1466929486237354  4.0832847629339115 12.0429355395585151
  6.4581282452773463  9.7676959650834121  4.7303565304675663
  7.4692606333978544  2.5717452366506661  1.2085048508014788
  8.8721365100526715  7.3833479181293189  1.3234662122908052
  4.4019845915266762  5.7504900558425049 10.7741152925993084
 10.4661007042519838  5.4462667576076527  7.7360101886582742
  4.0875936737497911  0.9038148814983457  5.2699077056059584
  2.4818718601249383 11.9560908796096204 11.8451117824065335
  9.6746521437572248  1.5922064191286178 -0.0108392668580924
  0.9025364095518418  8.8495753581179866  7.6939895611528124
 10.8767368454864766  4.1859219876373936  5.6925958134798682
  8.2723697658307280 10.7156766322209638  5.4596514486487662
  5.4895929779422197  3.8913040086403932  1.2164874681530453
 11.7987610202951281  2.3815729245794985 12.0376567033210105
  2.0979252550964009 10.6457831121776856  0.8089725817077693
  7.2433864618545796  1.9909319743097582  8.6964173881754565
  5.2541354792532253 12.0906449546106689  3.7689975358590320
  5.9536953403501203  8.7054037579382282 10.9371424900075276
  7.5988801653449354  5.3191495126687114  2.5914226495391324
  0.9049638766202912  5.2865109847033702  4.1420378919653063
 11.3411333174118134  6.6860112944846577  9.6443280755724992
 12.0160992191128262 11.7115771092261252  2.3820079729617274
  0.8501615974079152  2.0340200745083528 10.7278850534310344
  4.0740430148866933 12.0683332900196163  1.2716262098183764
  8.5665504914657991  0.6809789753480038 10.8085815982879776
  2.4896059457411761  0.9541202257439360  7.6877483149007464
 10.6870285433434180 12.1334754203595345  4.4566734256427063
 10.4751827944879548  7.3899714823085123 11.8385707521274970
  2.2103545694502422  5.5908600227010821  2.0459392917583479
  8.8391707057852429  5.5022223717218015  5.2486030507555466
  4.4631304405101053  7.0635473372469697  8.8663553867834768
  5.9518896076330465  4.1740829706018738  8.5843020774479353
  8.5064214394606914 12.3551034498987296  8.8634162014124129
  5.3858715412435245  1.2480730574487848  2.4533793432783666
  0.9353857376195535  7.6798975218655627  2.4111187971731649
 12.0487052863870581  4.5720249823711780 10.6924286848579708
 12.0645411151489270  1.1408334716899324  4.1664711907567638
  0.9640651685346125 10.9922043631173612  8.8722445611222511
  9.8581514298770596 11.3961904024121754  6.7360443080199115
  2.0231610506389410  2.2017864402118410  5.6733265951304324
  4.7717141850019322  8.6847618437123675  5.4916837179446052
  8.3562271499429066  4.0925100483135637  7.3185375462835172
  3.3017730862434038  4.8302788201696076 12.9842953844182176
 10.8853570069623569  8.7610688997063111  0.8139174943227687
  7.1716021055118686 10.8422919374789331 10.8816698248666395
  1.7035318898944372 -0.0631103182410342  3.2668994366082065
 11.4369051543997013 -0.0525785566419829  9.7854425504597078
  4.8643428571775154 -0.0301906107830704  9.7655837292586991
  8.0544934522505294 -0.0040603853992292  3.2366509912725605
 11.2398792421086409  6.4525010086950028  3.2791623038776381
  1.4994355803411605  6.4899168893032888  9.7830267168656828
  8.0887999441157046  6.4647550912004910  9.7556550733418170
  4.8782634904340902  6.4109039177096632  3.2430771196511059
  3.2231705837302842  1.7066188039305696  0.0068313215313241
  9.7021242218867076 11.4516208142952021 -0.0140609364576979
  9.7124658796000798  4.7237621560130219  0.0296247031169957
  3.2559233660470306  7.9636280151013423 -0.0071025212701657
  3.2483223410354856 11.2246180267270841  6.5315752438285903
  9.7178804914620205  1.4877882940864864  6.5234324234062901
  9.7029409466383996  8.1616013237150202  6.5315945126561195
  3.2197700291216935  4.9135611872358496  6.5283710489239297
 -0.0319099442831144  3.1916223878677372  1.7504815843997705
 -0.0727725693867899  9.6648117793245358 11.4075764448532642
 -0.0240970712442756  9.7002814005948128  4.8045595036078117
 -0.0251492314193695  3.2198409016835523  8.0638334096262945
  6.4710621110200339  3.2236369401353442 11.3881649117198496
  6.4780711885783679  9.7000691033559949  1.5992933223532666
  6.4920673687755697  9.7144008062509162  8.0868987135764865
  6.4666986523317194  3.1940877479507468  4.9037551246914468
  0.0302170227019815 -0.0500405870481691  0.0189850979332579
  6.4635894960357430 -0.0743096051280326  6.5065728313681488
 -0.1185875722199027  6.4972676107100433  6.5346685928161898
  6.5110246062057060  6.4140470591549335  0.0257931168205528
  9.7271583438885187  3.1691853193731276  3.2991226167100680
  3.2886123281155251  9.6710606523461244  9.8389521524373418
  9.7298486098853800  9.7316806403714349  9.7829318694044005
  3.2120546735022670  3.2212474884204481  3.2977655415807168
  3.2332072984930078  3.2719189738390413  9.7278627852365851
  9.7120076199261405  9.7390410146331643  3.2193720862233732
  3.2551889998204784  9.6819497722073127  3.2353725166575287
  9.7291150225152876  3.1924149231408117  9.7380819538911929
  6.4734905654443065  6.4787187969713020  6.5060661625792120
 -0.0722768080872767  6.4409723064387698  0.0462923100142363
  6.4535543440100103  0.0194074841693232  0.0121037959371432
  0.0225475049995888 -0.0974696712669473  6.5524605733801149
 12.6368181715546566  0.5982927387375782  2.0269223105144252
  0.5250509956719380 12.2005946236291756 11.1037420125894606
  6.7251019972560009 12.1921152274803717  8.4604589491125957
  5.9500865413686963  0.6649443907115713  4.5654581551993472
  0.3447533878992595  7.1788108490918159  4.5292285345799268
 12.4176072652449836  5.6657463957826417  8.4325886858989332
  6.2220259080596403  5.6596601981529995 11.0852230279678476
  7.0135875337629203  7.1104046522232487  1.9915351206195246
  1.9984896717163008 12.5519273765434427  0.6943370513748763
 11.1015138125447681  0.4503695751686149 12.2673436047100175
  8.4940946899062162  6.8485776106304357 12.3692719710390389
  4.5850056867792359  5.9421691294120755  0.8008444578109618
  4.4789653868041519  0.3676176930895337  7.1837132906740724
  8.4556785795089677 12.5256841585819867  5.8011720458543792
 10.9277451123604941  6.0709408064433541  5.8481256816981793
  1.7384329088377026  6.9992271655588558  7.3885450640421135
  0.6718931734434689  1.9681736754243080 12.6432020064748691
 12.2205236023270682 11.0432041597541559  0.4708148664514719
 12.1915016924006014  8.5005288453534966  6.8065001166196515
  0.7038818775312753  4.5852776906487414  6.0499111804937371
  7.2290574637314045  4.4486240259383756  0.5284076168985234
  5.7172748450748445  8.3487197632704007 12.7309635404617598
  5.7589872252705980 10.9631891756022579  6.0450065279011591
  7.2368677496566391  1.8677205324861768  6.8486810825478477
 10.5262572686731062  2.6734325783457646  1.3696381606224439
  2.6459365305874338 10.0601307651898555 11.8416366923393817
  8.9582762132417173 10.1906424323657152  7.8480927573621910
  3.8602532101051699  2.7916096083841362  5.2614722134235423
  3.9978428529288346  3.6967340634968715 11.6535481530711262
  9.0201544933707947  9.3029283918202879  1.2685442687424653
  2.6102227712514106  9.1507142822420917  5.2038344462768036
 10.3918942940802381  3.5449472612721058  7.7338592245763653
  9.4161414365166110  5.0828316841783190  2.4741244259721777
  3.6624536384620310  7.6812382644226762 10.5143499126639899
  3.5272062574910654 11.5983064281742543  4.0694043471950394
  9.2408051006021630  1.2187329063629091  9.0740194479023799
 10.0015213964027527  7.7958906800188554  8.9896110646689067
  2.7863372046264372  5.2287417254598854  3.9591819210174646
  2.7723401204611000  1.3469116505967655 10.5230041480029399
 10.1255437556069090 11.7429245981746817  2.5337472844093281
 11.6616211644855809  3.9468078224440881  3.7938616627669433
  1.2897510448203433  9.0870580725366477  9.4943377088308853
  5.1747380932581999  2.5298166056179192  9.2399854858876065
  7.7561156603216359 10.4992770193692273  3.6075356715109090
  1.3031025637091724 10.3925575226850473  2.7706981308985674
 11.7301242555905709  2.5336487136280170 10.1221836956541935
  7.7782025156165107  9.0504947459722214 10.3279227041359469
  5.1577894227165393  3.9553392945860097  3.0103962994081637
  6.2381294804540515  7.2635741385563035  8.4409830468074230
  6.9824599547084896  5.7654028592677289  4.5434671589245799
  0.3200613470079710  5.7761214202888818  2.0413615571991706
 12.4580632084149148  7.1659819162254239 11.1221760184114906
  6.7387202681694385  0.7823154099655966 11.0686196145129241
  5.9378534118421289 12.3715520766533515  1.9786843178668294
 12.6057086434932728 12.2185313428097864  4.5592206796574510
  0.5205275401352403  0.6903357682211551  8.4629747993625575
  8.4414633452334655  6.0111345869538075  7.1591512752336754
  4.4607916773157683  6.8925197336483688  5.8223218450506824
  1.9901435618060299  0.3035830144733205  5.8682794968414775
 11.1179946576465127 12.5584712745344831  7.3610260932306293
 10.9619812301556436  6.8585555678147552  0.7184313007943918
  1.8619184079455238  5.9573465631954159 12.2954836884365886
  4.4711505043083024 12.5892565802599226 12.3495173132584668
  8.3882652281805150  0.4614624555052617  0.7678300669366782
  7.1508008206011819  8.4413910818308775  5.9711708881575269
  5.6747365062016675  4.5423585438380707  6.8160468088891095
  5.7364099401851778  1.9949014723471783  0.5213196457400212
  7.2080704358785121 11.0755578841062192 12.7272905170062174
  0.6849950418157084 10.8906358556880836  6.9626508279960824
 12.2939419995747805  1.8454710047147589  6.0580561031085338
 12.2644394990255794  4.4422930966174281 12.6345509972771541
  0.7231127231527490  8.3566025779856989  0.4844225368142602
  4.0216187475510390  9.2529115595724445  7.8800721232979045
  9.0485255545755958  3.6069284008750748  5.2562178516313072
  2.4286214422377785  3.7253445059516808  1.3565279891464301
 10.3913705322147507  9.3139461306703577 11.7848482385361031
 10.3150712346135283 10.2947006116129689  5.1842222337470849
  2.5464510255320092  2.8604517378734209  7.7477500703234350
  8.9874569735455641  2.7624834248037851 11.6722040582195756
  3.9673463319595412 10.1420567471950616  1.3088703716254426
  2.8215138549079777 11.6297608089535291  9.0764467787777612
 10.1757525779031148  1.1724997752458879  3.9783154167819368
 10.1706852459712760  5.1505806606958231 10.4574720664271918
  2.8293273226841604  7.6843223250404753  2.5529124408100463
  3.5366468374242221  1.3116523701702074  2.4630615553216568
  9.2466485244512153 11.7184927627535735 10.5242112047087275
  9.4170285410765846  7.8177137309726179  4.0234762552896957
  3.6276194317315333  5.2457762691793732  9.0474275381590328
  5.2195741178731536 10.4092478941876703 10.3194823595648515
  7.7842748429436712  2.4160911961751133  3.0028120892964041
 11.6658102717524894  9.0441568920416646  2.7782985802554401
  1.2246141626149822  3.9182321347158684 10.1283846515626106
  7.7751594557771506  3.8669397207670095  9.2302281555970023
  5.2004510445738426  8.9176876800685392  3.6288091059222269
  1.2701859447228927  2.4487584178955508  3.7829026308702511
 11.6904389686955597 10.5167668307935642  9.4914969274459864
Cartesian
  0.0000000000000000  0.0000000000000000  0.0000000000000000
  0.0000000000000000  0.0000000000000000  0.0000000000000000
  0.0000000000000000  0.0000000000000000  0.0000000000000000
  0.0000000000000000  0.0000000000000000  0.0000000000000000
  0.0000000000000000  0.0000000000000000  0.0000000000000000
  0.0000000000000000  0.0000000000000000  0.0000000000000000
  0.0000000000000000  0.0000000000000000  0.0000000000000000
  0.0000000000000000  0.0000000000000000  0.0000000000000000
  0.0000000000000000  0.0000000000000000  0.0000000000000000
  0.0000000000000000  0.0000000000000000  0.0000000000000000
  0.0000000000000000  0.0000000000000000  0.0000000000000000
  0.0000000000000000  0.0000000000000000  0.0000000000000000
  0.0000000000000000  0.0000000000000000  0.0000000000000000
  0.0000000000000000  0.0000000000000000  0.0000000000000000
  0.0000000000000000  0.0000000000000000  0.0000000000000000
  0.0000000000000000  0.0000000000000000  0.0000000000000000
  0.0000000000000000  0.0000000000000000  0.0000000000000000
  0.0000000000000000  0.0000000000000000  0.0000000000000000
  0.0000000000000000  0.0000000000000000  0.0000000000000000
  0.0000000000000000  0.0000000000000000  0.0000000000000000
  0.0000000000000000  0.0000000000000000  0.0000000000000000
  0.0000000000000000  0.0000000000000000  0.0000000000000000
  0.0000000000000000  0.0000000000000000  0.0000000000000000
  0.0000000000000000  0.0000000000000000  0.0000000000000000
  0.0000000000000000  0.0000000000000000  0.0000000000000000
  0.0000000000000000  0.0000000000000000  0.0000000000000000
  0.0000000000000000  0.0000000000000000  0.0000000000000000
  0.0000000000000000  0.0000000000000000  0.0000000000000000
  0.0000000000000000  0.0000000000000000  0.0000000000000000
  0.0000000000000000  0.0000000000000000  0.0000000000000000
  0.0000000000000000  0.0000000000000000  0.0000000000000000
  0.0000000000000000  0.0000000000000000  0.0000000000000000
  0.0000000000000000  0.0000000000000000  0.0000000000000000
  0.0000000000000000  0.0000000000000000  0.0000000000000000
  0.0000000000000000  0.0000000000000000  0.0000000000000000
  0.0000000000000000  0.0000000000000000  0.0000000000000000
  0.0000000000000000  0.0000000000000000  0.0000000000000000
  0.0000000000000000  0.0000000000000000  0.0000000000000000
  0.0000000000000000  0.0000000000000000  0.0000000000000000
  0.0000000000000000  0.0000000000000000  0.0000000000000000
  0.0000000000000000  0.0000000000000000  0.0000000000000000
  0.0000000000000000  0.0000000000000000  0.0000000000000000
  0.0000000000000000  0.0000000000000000  0.0000000000000000
  0.0000000000000000  0.0000000000000000  0.0000000000000000
  0.0000000000000000  0.0000000000000000  0.0000000000000000
  0.0000000000000000  0.0000000000000000  0.0000000000000000
  0.0000000000000000  0.0000000000000000  0.0000000000000000
  0.0000000000000000  0.0000000000000000  0.0000000000000000
  0.0000000000000000  0.0000000000000000  0.0000000000000000
  0.0000000000000000  0.0000000000000000  0.0000000000000000
  0.0000000000000000  0.0000000000000000  0.0000000000000000
  0.0000000000000000  0.0000000000000000  0.0000000000000000
  0.0000000000000000  0.0000000000000000  0.0000000000000000
  0.0000000000000000  0.0000000000000000  0.0000000000000000
  0.0000000000000000  0.0000000000000000  0.0000000000000000
  0.0000000000000000  0.0000000000000000  0.0000000000000000
  0.0000000000000000  0.0000000000000000  0.0000000000000000
  0.0000000000000000  0.0000000000000000  0.0000000000000000
  0.0000000000000000  0.0000000000000000  0.0000000000000000
  0.0000000000000000  0.0000000000000000  0.0000000000000000
  0.0000000000000000  0.0000000000000000  0.0000000000000000
  0.0000000000000000  0.0000000000000000  0.0000000000000000
  0.0000000000000000  0.0000000000000000  0.0000000000000000
  0.0000000000000000  0.0000000000000000  0.0000000000000000
  0.0000000000000000  0.0000000000000000  0.0000000000000000
  0.0000000000000000  0.0000000000000000  0.0000000000000000
  0.0000000000000000  0.0000000000000000  0.0000000000000000
  0.0000000000000000  0.0000000000000000  0.0000000000000000
  0.0000000000000000  0.0000000000000000  0.0000000000000000
  0.0000000000000000  0.0000000000000000  0.0000000000000000
  0.0000000000000000  0.0000000000000000  0.0000000000000000
  0.0000000000000000  0.0000000000000000  0.0000000000000000
  0.0000000000000000  0.0000000000000000  0.0000000000000000
  0.0000000000000000  0.0000000000000000  0.0000000000000000
  0.0000000000000000  0.0000000000000000  0.0000000000000000
  0.0000000000000000  0.0000000000000000  0.0000000000000000
  0.0000000000000000  0.0000000000000000  0.0000000000000000
  0.0000000000000000  0.0000000000000000  0.0000000000000000
  0.0000000000000000  0.0000000000000000  0.0000000000000000
  0.0000000000000000  0.0000000000000000  0.0000000000000000
  0.0000000000000000  0.0000000000000000  0.0000000000000000
  0.0000000000000000  0.0000000000000000  0.0000000000000000
  0.0000000000000000  0.0000000000000000  0.0000000000000000
  0.0000000000000000  0.0000000000000000  0.0000000000000000
  0.0000000000000000  0.0000000000000000  0.0000000000000000
  0.0000000000000000  0.0000000000000000  0.0000000000000000
  0.0000000000000000  0.0000000000000000  0.0000000000000000
  0.0000000000000000  0.0000000000000000  0.0000000000000000
  0.0000000000000000  0.0000000000000000  0.0000000000000000
  0.0000000000000000  0.0000000000000000  0.0000000000000000
  0.0000000000000000  0.0000000000000000  0.0000000000000000
  0.0000000000000000  0.0000000000000000  0.0000000000000000
  0.0000000000000000  0.0000000000000000  0.0000000000000000
  0.0000000000000000  0.0000000000000000  0.0000000000000000
  0.0000000000000000  0.0000000000000000  0.0000000000000000
  0.0000000000000000  0.0000000000000000  0.0000000000000000
  0.0000000000000000  0.0000000000000000  0.0000000000000000
  0.0000000000000000  0.0000000000000000  0.0000000000000000
  0.0000000000000000  0.0000000000000000  0.0000000000000000
  0.0000000000000000  0.0000000000000000  0.0000000000000000
  0.0000000000000000  0.0000000000000000  0.0000000000000000
  0.0000000000000000  0.0000000000000000  0.0000000000000000
  0.0000000000000000  0.0000000000000000  0.0000000000000000
  0.0000000000000000  0.0000000000000000  0.0000000000000000
  0.0000000000000000  0.0000000000000000  0.0000000000000000
  0.0000000000000000  0.0000000000000000  0.0000000000000000
  0.0000000000000000  0.0000000000000000  0.0000000000000000
  0.0000000000000000  0.0000000000000000  0.0000000000000000
  0.0000000000000000  0.0000000000000000  0.0000000000000000
  0.0000000000000000  0.0000000000000000  0.0000000000000000
  0.0000000000000000  0.0000000000000000  0.0000000000000000
  0.0000000000000000  0.0000000000000000  0.0000000000000000
  0.0000000000000000  0.0000000000000000  0.0000000000000000
  0.0000000000000000  0.0000000000000000  0.0000000000000000
  0.0000000000000000  0.0000000000000000  0.0000000000000000
  0.0000000000000000  0.0000000000000000  0.0000000000000000
  0.0000000000000000  0.0000000000000000  0.0000000000000000
  0.0000000000000000  0.0000000000000000  0.0000000000000000
  0.0000000000000000  0.0000000000000000  0.0000000000000000
  0.0000000000000000  0.0000000000000000  0.0000000000000000
  0.0000000000000000  0.0000000000000000  0.0000000000000000
  0.0000000000000000  0.0000000000000000  0.0000000000000000
  0.0000000000000000  0.0000000000000000  0.0000000000000000
  0.0000000000000000  0.0000000000000000  0.0000000000000000
  0.0000000000000000  0.0000000000000000  0.0000000000000000
  0.0000000000000000  0.0000000000000000  0.0000000000000000
  0.0000000000000000  0.0000000000000000  0.0000000000000000
  0.0000000000000000  0.0000000000000000  0.0000000000000000
  0.0000000000000000  0.0000000000000000  0.0000000000000000
  0.0000000000000000  0.0000000000000000  0.0000000000000000
  0.0000000000000000  0.0000000000000000  0.0000000000000000
  0.0000000000000000  0.0000000000000000  0.0000000000000000
  0.0000000000000000  0.0000000000000000  0.0000000000000000
  0.0000000000000000  0.0000000000000000  0.0000000000000000
  0.0000000000000000  0.0000000000000000  0.0000000000000000
  0.0000000000000000  0.0000000000000000  0.0000000000000000
  0.0000000000000000  0.0000000000000000  0.0000000000000000
  0.0000000000000000  0.0000000000000000  0.0000000000000000
  0.0000000000000000  0.0000000000000000  0.0000000000000000
  0.0000000000000000  0.0000000000000000  0.0000000000000000
  0.0000000000000000  0.0000000000000000  0.0000000000000000
  0.0000000000000000  0.0000000000000000  0.0000000000000000
  0.0000000000000000  0.0000000000000000  0.0000000000000000
  0.0000000000000000  0.0000000000000000  0.0000000000000000
  0.0000000000000000  0.0000000000000000  0.0000000000000000
  0.0000000000000000  0.0000000000000000  0.0000000000000000
  0.0000000000000000  0.0000000000000000  0.0000000000000000
  0.0000000000000000  0.0000000000000000  0.0000000000000000
  0.0000000000000000  0.0000000000000000  0.0000000000000000
  0.0000000000000000  0.0000000000000000  0.0000000000000000
  0.0000000000000000  0.0000000000000000  0.0000000000000000
  0.0000000000000000  0.0000000000000000  0.0000000000000000
  0.0000000000000000  0.0000000000000000  0.0000000000000000
  0.0000000000000000  0.0000000000000000  0.0000000000000000
  0.0000000000000000  0.0000000000000000  0.0000000000000000
  0.0000000000000000  0.0000000000000000  0.0000000000000000
  0.0000000000000000  0.0000000000000000  0.0000000000000000
  0.0000000000000000  0.0000000000000000  0.0000000000000000
  0.0000000000000000  0.0000000000000000  0.0000000000000000
  0.0000000000000000  0.0000000000000000  0.0000000000000000
  0.0000000000000000  0.0000000000000000  0.0000000000000000
  0.0000000000000000  0.0000000000000000  0.0000000000000000
  0.0000000000000000  0.0000000000000000  0.0000000000000000
  0.0000000000000000  0.0000000000000000  0.0000000000000000
  0.0000000000000000  0.0000000000000000  0.0000000000000000
  0.0000000000000000  0.0000000000000000  0.0000000000000000
  0.0000000000000000  0.0000000000000000  0.0000000000000000
  0.0000000000000000  0.0000000000000000  0.0000000000000000
  0.0000000000000000  0.0000000000000000  0.0000000000000000
  0.0000000000000000  0.0000000000000000  0.0000000000000000
  0.0000000000000000  0.0000000000000000  0.0000000000000000
  0.0000000000000000  0.0000000000000000  0.0000000000000000
  0.0000000000000000  0.0000000000000000  0.0000000000000000
  0.0000000000000000  0.0000000000000000  0.0000000000000000
  0.0000000000000000  0.0000000000000000  0.0000000000000000
  0.0000000000000000  0.0000000000000000  0.0000000000000000
  0.0000000000000000  0.0000000000000000  0.0000000000000000
  0.0000000000000000  0.0000000000000000  0.0000000000000000
  0.0000000000000000  0.0000000000000000  0.0000000000000000
  0.0000000000000000  0.0000000000000000  0.0000000000000000
  0.0000000000000000  0.0000000000000000  0.0000000000000000
  0.0000000000000000  0.0000000000000000  0.0000000000000000
  0.0000000000000000  0.0000000000000000  0.0000000000000000
  0.0000000000000000  0.0000000000000000  0.0000000000000000
  0.0000000000000000  0.0000000000000000  0.0000000000000000
  0.0000000000000000  0.0000000000000000  0.0000000000000000
  0.0000000000000000  0.0000000000000000  0.0000000000000000
  0.0000000000000000  0.0000000000000000  0.0000000000000000
  0.0000000000000000  0.0000000000000000  0.0000000000000000
  0.0000000000000000  0.0000000000000000  0.0000000000000000
  0.0000000000000000  0.0000000000000000  0.0000000000000000
  0.0000000000000000  0.0000000000000000  0.0000000000000000
